(set-logic QF_S)
(declare-fun H () String)
(declare-fun I () String)
(declare-fun F () String)
(declare-fun E () String)
(declare-fun C () String)
(declare-fun D () String)
(assert (= (str.++  "bccbeea" D "dcaabafbbccffdeedacbadefbfbeabbdbfecfbab")  (str.++  "bccbeeadeeed" H "abdfcffbdcaabafbbccffdeedacbadefbfbeabbdbfecfbab") ))
(assert (= (str.++  "ceeaacbbbfbcbcfdaacdedbcafbdcefceebebfcfddfeceeefdcbdfcffabcbaeffaccfcfadedd" "")  (str.++  "ceeaacbbbfbcbcfdaacdedbcafbdcefceebebfcfddfeceeefdc" I "fabcbaeffaccfcfadedd") ))
(assert (= (str.++  "abcafadcacaaeacbacaedacccdcfecaecbcfbccbaaddddcbebeafebaddfadeebdfcfaecaabea" "")  (str.++  "abcafadcacaaeacbacaedacccdcfecaecbcfbccbaaddddcbebeafebaddfadee" I "aecaabea") ))
(assert (= (str.++  "edafbbbfbdfeecbaeeeceadcbccddcbbbdfcfdeccecfaacfecdedcbdcfcabccbcbbfcadbefcd" "")  (str.++  "edafbbbfbdfeecbaeeeceadcbccddcbb" I "deccecfaacfecdedcbdcfcabccbcbbfcadbefcd") ))
(assert (= (str.++  "dbffdbdcedeebcccaddafaddfdddcacceadccfebfaaabdcffffbaccfcabbcdcbfac" I "feda")  (str.++  "dbffdbdcedeebcccaddafaddfdddcacceadccfebfaaabdcffffbaccfcabbcdcbfac" I "feda") ))
(assert (= (str.++  "decaaadacbfdfeacdaefdfaaee" E "aeaa")  (str.++  "decaaadacb" C "dfccafffafaeaa") ))
(assert (= (str.++  "cbcbdebefdfcadeddcaafebfbeeaeafebeaacfbeebdbcafdacfbedbaaeabedacfeafdaebbdcb" "")  (str.++  "cbcbdebefdfcadedd" F "ebfbeeaeafebeaacfbeebdbcafdacfbedbaaeabedacfeafdaebbdcb") ))
(assert (= (str.++  "dafffdabbebcaaeeaceaabedacfcfeebfaebfafddefacdcfdd" F "ffabffdbfffecbfbbcfeeb")  (str.++  "dafffdabbebcaaeeaceaabedacfcfeebfaebfafddefacdcfdd" F "ffabffdbfffecbfbbcfeeb") ))
(assert (= (str.++  "fdefdadcaccadbcfafadadbeddefcfdcbaaffbbaafaeababbaebcceeedbddfeccaaffbeffbba" "")  (str.++  "fdefdadcaccadbcfafadadbeddefcfdcbaaffbbaafaeababbaebcceeedbddfec" F "fbeffbba") ))
(assert (= (str.++  "cfeecfabbebfadbbebeabeacabcaafaadfecedbdfdfebdeaecffebabcbafaebfaeeeebcecbea" "")  (str.++  "cfeecfabbebfadbbebeabeacab" F "aadfecedbdfdfebdeaecffebabcbafaebfaeeeebcecbea") ))
(assert (= (str.++  "dbccbfdbecbbdbadafbbacccff" F "daadacebdeeeeaabfabbfbbbeeffbdabdbccbbdeaabcdc")  (str.++  "dbccbfdbecbbdbadafbbacccff" F "daadacebdeeeeaabfabbfbbbeeffbdabdbccbbdeaabcdc") ))
(assert (= (str.++  "cfcaafaacbffbdbaffeeabdbaafbdcbacbaeceaacaaedbfedbcfbeadfaacceceffaccbbadfbb" "")  (str.++  "cf" F "aacbffbdbaffeeabdbaafbdcbacbaeceaacaaedbfedbcfbeadfaacceceffaccbbadfbb") ))
(assert (= (str.++  "bebdffbacabffcafceccdcdfdfddccfdbfaafacfcabafcfccedfdcbaccefbdfccdda" F "bfda")  (str.++  "bebdffbacabffcafceccdcdfdfddccfdbfaafacfcabafcfccedfdcbaccefbdfccdda" F "bfda") ))
(assert (= (str.++  "cfbcabeeeadfbbccdeeaedbafcdebcbabbdccbcffdfdfccafefebeb" F "deedeefefcaebbeea")  (str.++  "cfbcabeeeadfbbccdeeaedbafcdebcbabbdccbcffdfdfccafefebebcaafdeedeefefcaebbeea" "") ))
(assert (= (str.++  "ffcdefe" F "caaebfbefaabcbcbeabeaffdeabbddbdbaddcbeadfcccddfdddfcdaceddbccfea")  (str.++  "ffcdefecaafcaaebfbefaabcbcbeabeaffdeabbddbdbaddcbeadfcccddfdddfcdaceddbccfea" "") ))
(assert (= (str.++  "bfbabbcddfcecfbbceeddedfadfcdedfaddabbceaddea" F "aecffcabaaffbfefbbbcdbfdcde")  (str.++  "bfbabbcddfcecfbbceeddedfadfcdedfaddabbceaddea" F "aecffcabaaffbfefbbbcdbfdcde") ))
(assert (= (str.++  "fcadfdafbeffbeaebddcaabfcbeeabcaafbfedbfeecfebadebaaedadacaaaedcefebdaebcdda" "")  (str.++  "fcadfdafbeffbeaebddcaabfcbeeab" F "bfedbfeecfebadebaaedadacaaaedcefebdaebcdda") ))
(assert (= (str.++  "cfff" F "afcafccffcccdcbebfffbadedcedcaadfbcebbbcfbbceafcffadabcafcbfecfbbeeb")  (str.++  "cfff" F "afcafccffcccdcbebfffbadedcedcaadfbcebbbcfbbceafcffadabcafcbfecfbbeeb") ))
(assert (= (str.++  "bfceaedbeafdbcaafbdfbfebefddedaaecbabbfefdcaeadcfabafceadbfbeffeecaddfdcddcf" "")  (str.++  "bfceaedbeafdb" F "bdfbfebefddedaaecbabbfefdcaeadcfabafceadbfbeffeecaddfdcddcf") ))
(assert (= (str.++  "ecaafaecfefbabfaabbecdbedffcdfcefdaebdfbeaeceacfafdbbcdefbfbbceeefabbaecedda" "")  (str.++  "e" F "aecfefbabfaabbecdbedffcdfcefdaebdfbeaeceacfafdbbcdefbfbbceeefabbaecedda") ))
(assert (= (str.++  "deecccdfcbdcadcbddadccadedcbceabcbefaacfafbdedfcaead" F "ccfbcfdcdccfaabcfcaf")  (str.++  "deecccdfcbdcadcbddadccadedcbceabcbefaacfafbdedfcaeadcaafccfbcfdcdccfaabcfcaf" "") ))
(assert (= (str.++  "beeedbbcafdcfcdedfcbfecccc" F "ffaaedbfcccbdccbedaafabbadcccebeeaddcfbeefcbce")  (str.++  "beeedbbcafdcfcdedfcbfecccccaafffaaedbfcccbdccbedaafabbadcccebeeaddcfbeefcbce" "") ))
(assert (= (str.++  "ff" F "ddadcecfbefccfdfcbcffeeaddbfddabffbbdcbcbacafadfabaebdcbfccbbeebeeccfb")  (str.++  "ffcaafddadcecfbefccfdfcbcffeeaddbfddabffbbdcbcbacafadfabaebdcbfccbbeebeeccfb" "") ))
(assert (= (str.++  "cfafdeeceedcbabdedaabcebbdedacfcbefbbecdfecdacbbccbb" F "ccdcbfccbdbdfeaaeabe")  (str.++  "cfafdeeceedcbabdedaabcebbdedacfcbefbbecdfecdacbbccbb" F "ccdcbfccbdbdfeaaeabe") ))
(assert (= (str.++  "cffdeadcaafffabedacbaaffdbaefcbefdcfbebeefbfbfeedcdcccfeacecbeafedadddbccafb" "")  (str.++  "cffdead" F "ffabedacbaaffdbaefcbefdcfbebeefbfbfeedcdcccfeacecbeafedadddbccafb") ))
(assert (= (str.++  "dfeabcbbdabbceaaedccefdacbeadbbdefbabfdccfaccaafdfacccdabffddefdffcfbaafaacd" "")  (str.++  "dfeabcbbdabbceaaedccefdacbeadbbdefbabfdccfac" F "dfacccdabffddefdffcfbaafaacd") ))
(assert (= (str.++  "a" F "cafadaffbadbcdfaddbebecaaaccbadfebcdfabecdcccfbcabffeccedbfebcdffcfeabc")  (str.++  "a" F "cafadaffbadbcdfaddbebecaaaccbadfebcdfabecdcccfbcabffeccedbfebcdffcfeabc") ))
(assert (= (str.++  "caafcaacfacaecacbdaab" F "accdacefbffaaacecbdafaaadaeefcabafefbedddbebbdcfdbd")  (str.++  F "caacfacaecacbdaab" F "accdacefbffaaacecbdafaaadaeefcabafefbedddbebbdcfdbd") ))
(assert (= (str.++  "abbebfecdebbfeeaddfddccffaeecaf" F "afabedebcabbefeefccbdefcdafafafafcdfadfad")  (str.++  "abbebfecdebbfeeaddfddccffaeecafcaafafabedebcabbefeefccbdefcdafafafafcdfadfad" "") ))
(assert (= (str.++  "febadacafbeedccfbacfcccedcbdefeeadbfeabedaecdbcdcf" F "abddaeeaebaaaadcbcbfab")  (str.++  "febadacafbeedccfbacfcccedcbdefeeadbfeabedaecdbcdcfcaafabddaeeaebaaaadcbcbfab" "") ))
(assert (= (str.++  "bccadbedbeabdffdbbcacddcbaabebeaefffdccdcbefefcbbeadedbbdbabeba" F "cfdeffedc")  (str.++  "bccadbedbeabdffdbbcacddcbaabebeaefffdccdcbefefcbbeadedbbdbabeba" F "cfdeffedc") ))
(assert (= (str.++  "feecaeddceefdcadcccfabefbbccdbffbcbbeeba" F "deddbbcacbfbdfbbcfefccdbecdcaacc")  (str.++  "feecaeddceefdcadcccfabefbbccdbffbcbbeeba" F "deddbbcacbfbdfbbcfefccdbecdcaacc") ))
(assert (= (str.++  "caefafdcdbfdceefdfccfbccaafbdcfbceeccdabcccfaeaadbadcdbbfceccfbbcdbebecdbdbc" "")  (str.++  "caefafdcdbfdceefdfccfbc" F "bdcfbceeccdabcccfaeaadbadcdbbfceccfbbcdbebecdbdbc") ))
(assert (= (str.++  "dfabdeabecbedbddccdbfed" F "eeadcfaacaaacbadafccdccbfdeedecafceccdfabfbffebae")  (str.++  "dfabdeabecbedbddccdbfedcaafeeadcfaacaaacbadafccdccbfdeedecafceccdfabfbffebae" "") ))
(assert (= (str.++  "dddffccdbcdfafbccbdecfadeedcabaecdbdcbdbbadcfbbafbcadaafdbead" F "aecedabddef")  (str.++  "dddffccdbcdfafbccbdecfadeedcabaecdbdcbdbbadcfbbafbcadaafdbeadcaafaecedabddef" "") ))
(assert (= (str.++  "bbcdbcecadfbaafdabfcdbbdcfdfedaedbfdcccbfabcaafedddfbfeacbbaadcadecffffcceed" "")  (str.++  "bbcdbcecadfbaafdabfcdbbdcfdfedaedbfdcccbfab" F "edddfbfeacbbaadcadecffffcceed") ))
(assert (= (str.++  "bfafadedbebdfcfdbfaecdde" F "cbfdddbcafcbcdfebffdcaadcbbddbcfbcddffcbdeecfbef")  (str.++  "bfafadedbebdfcfdbfaecddecaafcbfdddbcafcbcdfebffdcaadcbbddbcfbcddffcbdeecfbef" "") ))
(assert (= (str.++  "ccce" F "cbcaeefaeeeabceeaaababacbaddfbaeaaedabdbdebdddfdadebebbaeaddedcfdeac")  (str.++  "cccecaafcbcaeefaeeeabceeaaababacbaddfbaeaaedabdbdebdddfdadebebbaeaddedcfdeac" "") ))
(assert (= (str.++  "ddbaffddcbddbdcedababeddcfafbbccaedadfeb" F "ffcecefbcddacfbddbbaabcdbdfceafb")  (str.++  "ddbaffddcbddbdcedababeddcfafbbccaedadfeb" F "ffcecefbcddacfbddbbaabcdbdfceafb") ))
(assert (= (str.++  "dcdaabdfeefbccfefddbececddeecbddcabdcdedbafaecadeddaacaeebccfabecdf" F "ffbae")  (str.++  "dcdaabdfeefbccfefddbececddeecbddcabdcdedbafaecadeddaacaeebccfabecdf" F "ffbae") ))
(assert (= (str.++  "aaeababffdeffccbaededfedfbdae" F "edeeffbdcaeffaffbfacdccbccbbefdcbbeffdecfdc")  (str.++  "aaeababffdeffccbaededfedfbdae" F "edeeffbdcaeffaffbfacdccbccbbefdcbbeffdecfdc") ))
(assert (= (str.++  "afecddbbdffe" F "baacffebbcbbaccfffdccdadaafcddaecafefcafcdbbededdddcbbbccabd")  (str.++  "afecddbbdffecaafbaacffebbcbbaccfffdccdadaafcddaecafefcafcdbbededdddcbbbccabd" "") ))
(check-sat)
(get-model)
